SECTION Graph
Nodes 311
Edges 613
E 1 54 1
E 1 288 4
E 1 290 1
E 1 292 2
E 2 54 1
E 2 286 10
E 2 293 1
E 2 295 2
E 3 233 50
E 3 291 7
E 3 296 1
E 4 293 9
E 4 298 1
E 5 152 2
E 5 163 1
E 6 177 5
E 7 114 6
E 7 125 1
E 7 130 1
E 7 135 5
E 8 135 6
E 8 143 1
E 8 148 1
E 8 158 4
E 9 125 5
E 9 135 1
E 9 143 6
E 10 130 5
E 10 135 1
E 10 148 6
E 10 172 16
E 11 55 2
E 11 258 1
E 11 259 1
E 11 270 9
E 12 56 2
E 12 59 1
E 12 267 1
E 12 278 9
E 13 270 6
E 13 279 1
E 14 259 9
E 14 269 1
E 14 270 1
E 14 279 6
E 15 267 9
E 15 278 1
E 16 17 2
E 16 118 1
E 16 119 1
E 16 138 9
E 17 122 1
E 17 128 1
E 17 140 9
E 18 140 6
E 18 147 2
E 18 157 1
E 18 169 6
E 19 103 16
E 19 119 9
E 19 138 1
E 19 144 6
E 20 128 9
E 20 140 1
E 20 157 6
E 20 264 50
E 21 57 2
E 21 62 5
E 21 225 1
E 21 229 1
E 22 56 1
E 22 59 2
E 22 260 2
E 22 261 1
E 23 227 5
E 23 235 2
E 23 238 1
E 23 257 7
E 24 248 3
E 25 208 1
E 25 209 1
E 25 214 1
E 25 226 5
E 26 223 7
E 26 237 1
E 26 239 1
E 26 242 2
E 27 40 1
E 27 167 1
E 27 171 2
E 27 187 9
E 28 41 1
E 28 173 2
E 28 182 1
E 28 201 9
E 29 61 2
E 29 187 6
E 29 202 1
E 29 218 5
E 30 57 5
E 30 62 2
E 30 201 6
E 30 221 1
E 31 167 9
E 31 179 3
E 31 187 1
E 31 202 6
E 32 182 9
E 32 201 1
E 32 221 6
E 33 34 2
E 33 45 1
E 33 71 1
E 33 74 9
E 34 46 1
E 34 73 1
E 34 75 9
E 35 36 2
E 35 74 6
E 35 77 1
E 35 89 5
E 36 75 6
E 36 83 1
E 36 93 5
E 37 71 9
E 37 74 1
E 37 77 6
E 38 73 9
E 38 75 1
E 38 83 6
E 38 127 27
E 39 131 1
E 39 142 6
E 40 63 2
E 40 142 9
E 40 164 1
E 41 64 2
E 41 153 9
E 41 178 1
E 42 131 6
E 42 136 3
E 42 142 1
E 42 164 9
E 43 153 1
E 43 178 9
E 44 67 1
E 44 69 6
E 45 46 2
E 45 68 9
E 45 70 1
E 46 69 9
E 46 72 1
E 47 68 1
E 47 70 9
E 48 67 6
E 48 69 1
E 48 72 9
E 48 88 27
E 49 65 6
E 50 51 1
E 50 76 93
E 51 65 9
E 51 66 2
E 51 78 93
E 52 65 2
E 52 66 9
E 53 79 154
E 54 289 4
E 54 294 2
E 55 56 1
E 55 261 1
E 55 273 9
E 56 275 9
E 57 58 1
E 57 234 1
E 58 221 5
E 58 236 1
E 59 60 1
E 59 262 2
E 60 263 2
E 60 267 1
E 61 62 1
E 61 192 6
E 61 225 5
E 62 195 6
E 63 64 1
E 63 145 9
E 63 171 1
E 64 149 9
E 64 173 1
E 66 80 93
E 67 76 27
E 68 69 2
E 70 71 1
E 72 73 1
E 72 104 27
E 73 107 27
E 74 75 2
E 76 78 1
E 76 88 6
E 77 86 5
E 78 80 2
E 78 91 6
E 79 81 1
E 79 82 1
E 80 94 6
E 80 121 20
E 81 84 1
E 81 85 1
E 82 85 1
E 82 100 9
E 83 95 5
E 83 137 27
E 84 87 1
E 84 115 16
E 85 87 1
E 85 101 9
E 86 89 1
E 86 90 1
E 87 103 9
E 87 119 16
E 88 91 1
E 88 104 9
E 89 92 1
E 89 93 2
E 90 92 1
E 90 98 5
E 91 94 2
E 91 106 9
E 92 96 2
E 92 99 5
E 93 95 1
E 93 96 1
E 94 109 9
E 94 133 20
E 95 97 1
E 95 204 51
E 96 97 1
E 96 102 5
E 97 105 5
E 97 146 27
E 98 99 1
E 98 110 7
E 99 102 2
E 99 113 7
E 100 101 1
E 100 111 6
E 101 103 1
E 101 114 6
E 102 105 1
E 102 117 7
E 103 116 6
E 104 106 1
E 104 107 1
E 105 120 7
E 105 161 27
E 106 108 1
E 106 109 2
E 107 108 1
E 107 127 9
E 108 112 2
E 108 129 9
E 109 112 1
E 109 151 21
E 110 113 1
E 110 115 2
E 111 114 1
E 111 125 6
E 112 132 9
E 112 155 21
E 113 117 2
E 113 118 2
E 114 116 1
E 115 118 1
E 115 119 1
E 116 130 6
E 116 144 16
E 117 120 1
E 117 122 2
E 118 122 2
E 120 124 2
E 120 237 50
E 121 123 1
E 121 133 6
E 122 124 1
E 123 126 1
E 123 134 6
E 124 128 1
E 124 183 27
E 126 131 3
E 126 136 6
E 127 129 1
E 127 137 6
E 128 243 50
E 129 132 2
E 129 139 6
E 130 162 16
E 132 141 6
E 132 174 20
E 133 134 1
E 133 174 19
E 134 136 1
E 134 151 9
E 136 154 9
E 137 139 1
E 137 146 6
E 138 140 2
E 138 147 6
E 139 141 2
E 139 150 6
E 141 156 6
E 141 188 20
E 142 145 2
E 143 152 4
E 144 147 1
E 144 162 6
E 145 149 1
E 146 150 1
E 146 161 5
E 147 166 6
E 148 160 4
E 148 186 16
E 149 153 2
E 150 156 2
E 150 165 5
E 151 154 1
E 151 155 1
E 152 158 1
E 154 159 1
E 154 164 3
E 155 159 1
E 155 176 9
E 156 168 5
E 156 205 20
E 157 170 6
E 157 271 50
E 158 160 1
E 158 163 2
E 159 167 3
E 159 179 9
E 160 181 9
E 160 198 16
E 161 165 1
E 161 183 9
E 162 166 1
E 162 172 5
E 163 177 7
E 163 203 17
E 164 167 1
E 165 168 2
E 165 185 9
E 166 169 2
E 166 175 5
E 168 189 9
E 168 220 20
E 169 170 1
E 169 180 5
E 170 184 5
E 170 280 50
E 171 173 1
E 171 192 9
E 172 175 1
E 172 186 6
E 173 195 9
E 174 176 1
E 174 188 6
E 175 180 2
E 175 190 6
E 176 179 1
E 176 191 6
E 177 181 1
E 178 182 1
E 179 193 6
E 180 184 1
E 180 194 6
E 181 224 16
E 183 185 1
E 184 197 6
E 184 283 50
E 185 189 2
E 186 190 1
E 186 198 4
E 187 192 2
E 188 191 1
E 188 205 6
E 189 240 20
E 190 194 2
E 190 200 4
E 191 193 1
E 191 204 5
E 192 195 1
E 193 196 1
E 193 208 5
E 194 197 1
E 194 206 4
E 195 201 2
E 196 199 1
E 196 211 5
E 197 210 4
E 197 287 50
E 198 200 1
E 198 203 2
E 199 202 1
E 199 213 5
E 200 206 2
E 200 207 2
E 202 216 5
E 203 207 1
E 203 224 7
E 204 208 1
E 204 209 1
E 205 209 1
E 205 220 5
E 206 210 1
E 206 212 2
E 207 212 2
E 208 211 1
E 209 223 5
E 210 215 2
E 210 290 50
E 211 213 1
E 211 214 1
E 212 215 1
E 212 231 7
E 213 216 1
E 213 217 1
E 214 217 1
E 214 228 5
E 215 233 7
E 215 291 50
E 216 218 1
E 216 219 1
E 217 219 1
E 217 230 5
E 218 222 1
E 218 225 2
E 219 222 1
E 219 232 5
E 220 223 1
E 220 237 7
E 222 227 2
E 222 235 5
E 223 226 1
E 224 231 3
E 225 227 1
E 226 228 1
E 226 239 7
E 227 229 1
E 228 230 1
E 228 241 7
E 229 234 2
E 229 238 5
E 230 232 1
E 230 245 7
E 231 233 1
E 232 235 1
E 232 249 7
E 234 236 1
E 234 244 5
E 235 252 7
E 236 248 5
E 237 240 2
E 238 244 2
E 238 260 7
E 239 241 1
E 239 246 2
E 240 242 1
E 240 243 1
E 241 245 1
E 241 250 2
E 242 246 1
E 242 247 1
E 243 247 1
E 243 264 9
E 244 248 1
E 244 262 7
E 245 249 1
E 245 253 2
E 246 250 1
E 246 251 1
E 247 251 1
E 247 265 9
E 248 263 7
E 249 252 1
E 249 255 2
E 250 253 1
E 250 254 1
E 251 254 1
E 251 266 9
E 252 257 2
E 252 258 2
E 253 255 1
E 253 256 1
E 254 256 1
E 254 268 9
E 255 258 1
E 255 259 1
E 256 259 1
E 256 269 9
E 257 260 1
E 257 261 2
E 258 261 2
E 260 262 2
E 262 263 1
E 264 265 1
E 264 271 6
E 265 266 1
E 265 272 6
E 266 268 1
E 266 274 6
E 268 269 1
E 268 276 6
E 269 277 6
E 270 273 2
E 271 272 1
E 271 280 6
E 272 274 1
E 272 281 6
E 273 275 1
E 274 276 1
E 274 282 6
E 275 278 2
E 276 277 1
E 276 286 11
E 277 279 1
E 277 293 21
E 280 281 1
E 280 283 5
E 281 282 1
E 281 284 5
E 282 285 5
E 283 284 1
E 283 287 6
E 284 285 1
E 284 288 6
E 285 286 1
E 285 289 6
E 287 288 1
E 287 290 4
E 288 289 1
E 290 291 2
E 291 292 1
E 292 294 1
E 292 296 7
E 294 295 1
E 294 297 7
E 295 298 7
E 296 297 1
E 297 298 1
E 1 299 100000
E 2 299 100000
E 3 299 100000
E 4 299 100000
E 5 300 100000
E 6 300 100000
E 7 301 100000
E 8 301 100000
E 9 301 100000
E 10 301 100000
E 11 302 100000
E 12 302 100000
E 13 302 100000
E 14 302 100000
E 15 302 100000
E 16 303 100000
E 17 303 100000
E 18 303 100000
E 19 303 100000
E 20 303 100000
E 21 304 100000
E 22 304 100000
E 23 304 100000
E 24 304 100000
E 25 305 100000
E 26 305 100000
E 27 306 100000
E 28 306 100000
E 29 306 100000
E 30 306 100000
E 31 306 100000
E 32 306 100000
E 33 307 100000
E 34 307 100000
E 35 307 100000
E 36 307 100000
E 37 307 100000
E 38 307 100000
E 39 308 100000
E 40 308 100000
E 41 308 100000
E 42 308 100000
E 43 308 100000
E 44 309 100000
E 45 309 100000
E 46 309 100000
E 47 309 100000
E 48 309 100000
E 49 310 100000
E 50 310 100000
E 51 310 100000
E 52 310 100000
E 53 311 100000
E 54 299 100000
E 55 302 100000
E 56 302 100000
E 57 304 100000
E 58 304 100000
E 59 304 100000
E 60 304 100000
E 61 306 100000
E 62 306 100000
E 63 308 100000
E 64 308 100000
END

SECTION Terminals
Terminals 13
T 299
T 300
T 301
T 302
T 303
T 304
T 305
T 306
T 307
T 308
T 309
T 310
T 311
END

EOF
